
Gurobi 11.0.1 (win64) logging started Thu May 16 18:35:41 2024

Set parameter LogFile to value "output/solver_log4.txt"
Gurobi Optimizer version 11.0.1 build v11.0.1rc0 (win64 - Windows 11.0 (22631.2))

CPU model: 11th Gen Intel(R) Core(TM) i7-1165G7 @ 2.80GHz, instruction set [SSE2|AVX|AVX2|AVX512]
Thread count: 4 physical cores, 8 logical processors, using up to 8 threads

Optimize a model with 5881 rows, 1508 columns and 112315 nonzeros
Model fingerprint: 0xffd54cc7
Variable types: 568 continuous, 940 integer (940 binary)
Coefficient statistics:
  Matrix range     [4e-01, 1e+05]
  Objective range  [1e+00, 1e+02]
  Bounds range     [1e+00, 1e+00]
  RHS range        [1e-02, 1e+05]

User MIP start produced solution with objective 40099.3 (0.01s)
User MIP start produced solution with objective 40099.3 (0.01s)
Loaded user MIP start with objective 40099.3

Presolve removed 1217 rows and 615 columns
Presolve time: 0.12s
Presolved: 4664 rows, 893 columns, 89777 nonzeros
Variable types: 524 continuous, 369 integer (365 binary)

Root relaxation: objective 5.232818e+04, 2345 iterations, 0.17 seconds (0.33 work units)

    Nodes    |    Current Node    |     Objective Bounds      |     Work
 Expl Unexpl |  Obj  Depth IntInf | Incumbent    BestBd   Gap | It/Node Time

     0     0 52328.1812    0   85 40099.2690 52328.1812  30.5%     -    0s
     0     0 51267.7568    0   75 40099.2690 51267.7568  27.9%     -    0s
     0     0 51245.9922    0   84 40099.2690 51245.9922  27.8%     -    0s
     0     0 51245.9922    0   84 40099.2690 51245.9922  27.8%     -    0s
     0     0 50941.9372    0   84 40099.2690 50941.9372  27.0%     -    1s
     0     0 50907.4391    0   92 40099.2690 50907.4391  27.0%     -    1s
     0     0 50906.3864    0   85 40099.2690 50906.3864  27.0%     -    1s
     0     0 50905.8445    0   87 40099.2690 50905.8445  26.9%     -    1s
     0     0 50905.5981    0   98 40099.2690 50905.5981  26.9%     -    1s
     0     0 50697.5260    0  108 40099.2690 50697.5260  26.4%     -    1s
     0     0 50491.7178    0   95 40099.2690 50491.7178  25.9%     -    2s
     0     0 50491.7178    0  112 40099.2690 50491.7178  25.9%     -    2s
     0     0 50491.7178    0  108 40099.2690 50491.7178  25.9%     -    2s
     0     0 50491.7178    0  108 40099.2690 50491.7178  25.9%     -    2s
     0     0 50280.6910    0   90 40099.2690 50280.6910  25.4%     -    2s
     0     0 50130.0234    0   98 40099.2690 50130.0234  25.0%     -    2s
     0     0 50130.0234    0  116 40099.2690 50130.0234  25.0%     -    2s
     0     0 50130.0234    0  119 40099.2690 50130.0234  25.0%     -    2s
     0     0 50130.0234    0  111 40099.2690 50130.0234  25.0%     -    2s
     0     0 50130.0234    0  110 40099.2690 50130.0234  25.0%     -    3s
     0     0 50081.1963    0  115 40099.2690 50081.1963  24.9%     -    3s
     0     0 50081.1963    0  116 40099.2690 50081.1963  24.9%     -    3s
     0     0 50081.1963    0  119 40099.2690 50081.1963  24.9%     -    3s
     0     0 50052.2687    0  104 40099.2690 50052.2687  24.8%     -    3s
     0     0 50052.2687    0  111 40099.2690 50052.2687  24.8%     -    3s
     0     0 50052.2687    0  135 40099.2690 50052.2687  24.8%     -    4s
     0     0 50052.2687    0  124 40099.2690 50052.2687  24.8%     -    4s
     0     0 49428.7052    0   95 40099.2690 49428.7052  23.3%     -    4s
     0     0 49374.2834    0   94 40099.2690 49374.2834  23.1%     -    4s
     0     0 49374.2834    0   97 40099.2690 49374.2834  23.1%     -    4s
     0     0 49374.2834    0   91 40099.2690 49374.2834  23.1%     -    4s
     0     0 49363.1604    0  109 40099.2690 49363.1604  23.1%     -    4s
     0     0 49363.1604    0  106 40099.2690 49363.1604  23.1%     -    4s
     0     0 49363.1604    0  107 40099.2690 49363.1604  23.1%     -    4s
     0     0 49332.2666    0   96 40099.2690 49332.2666  23.0%     -    5s
     0     0 49330.8990    0  103 40099.2690 49330.8990  23.0%     -    5s
     0     0 49330.8209    0  105 40099.2690 49330.8209  23.0%     -    5s
     0     0 49329.4651    0   97 40099.2690 49329.4651  23.0%     -    5s
     0     0 49329.4481    0   97 40099.2690 49329.4481  23.0%     -    5s
     0     0 49321.1871    0   93 40099.2690 49321.1871  23.0%     -    5s
     0     0 49319.3331    0   98 40099.2690 49319.3331  23.0%     -    5s
     0     0 49319.2894    0   98 40099.2690 49319.2894  23.0%     -    5s
     0     0 49318.4149    0  104 40099.2690 49318.4149  23.0%     -    5s
     0     0 49317.8891    0   97 40099.2690 49317.8891  23.0%     -    5s
     0     0 49317.3318    0  107 40099.2690 49317.3318  23.0%     -    6s
     0     0 49316.8818    0  116 40099.2690 49316.8818  23.0%     -    6s
     0     0 49316.8084    0  117 40099.2690 49316.8084  23.0%     -    6s
     0     0 49305.9981    0  107 40099.2690 49305.9981  23.0%     -    6s
     0     0 49304.6416    0  105 40099.2690 49304.6416  23.0%     -    6s
     0     0 49304.4076    0  107 40099.2690 49304.4076  23.0%     -    6s
     0     0 49303.2235    0  111 40099.2690 49303.2235  23.0%     -    6s
     0     0 49302.8349    0  111 40099.2690 49302.8349  23.0%     -    6s
     0     0 49302.2796    0  104 40099.2690 49302.2796  23.0%     -    7s
     0     0 49302.2722    0  104 40099.2690 49302.2722  23.0%     -    7s
     0     2 49302.2209    0  104 40099.2690 49302.2209  23.0%     -    7s
    61    62 43780.4399   10   69 40099.2690 48547.3200  21.1%   524   10s
   212   126 40768.1968   10   72 40099.2690 46401.9619  15.7%   559   15s
H  266   143                    40099.465339 46401.9619  15.7%   534   16s
   473   149     cutoff    7      40099.4653 43821.2986  9.28%   558   20s
H  491   149                    40103.233093 43773.2298  9.15%   554   20s
   674   139     cutoff    7      40103.2331 43472.8516  8.40%   573   25s
   778   136     cutoff   12      40103.2331 43182.4207  7.68%   564   32s
   946   108     cutoff   15      40103.2331 42663.5917  6.38%   557   36s
H  964   108                    40103.535339 42654.5789  6.36%   558   36s
  1154   102     cutoff   16      40103.5353 41387.9681  3.20%   557   40s
  1748   498 40127.0852   89   60 40103.5353 40432.6945  0.82%   461   45s
* 2007   498             179    40107.617074 40430.4798  0.80%   409   45s
  3238  1127 40133.5254   84  104 40107.6171 40264.5628  0.39%   272   55s
  3301  1162 40264.5628   24   77 40107.6171 40264.5628  0.39%   286   60s

Cutting planes:
  Gomory: 3
  Implied bound: 7
  MIR: 64

Explored 3303 nodes (972267 simplex iterations) in 60.02 seconds (122.86 work units)
Thread count was 8 (of 8 available processors)

Solution count 5: 40107.6 40103.5 40103.2 ... 40099.3

Time limit reached
Best objective 4.010761707424e+04, best bound 4.026456280284e+04, gap 0.3913%
